150 2721
1 2 1
1 9 -1
1 15 -1
1 18 1
1 20 -1
1 29 1
1 32 1
1 33 -1
1 36 -1
1 45 -1
1 50 1
1 51 -1
1 62 1
1 66 1
1 68 -1
1 73 1
1 74 -1
1 75 -1
1 82 -1
1 84 1
1 89 1
1 90 -1
1 104 1
1 108 -1
1 109 1
1 112 -1
1 114 1
1 118 -1
1 121 1
1 127 1
1 130 1
1 131 1
1 139 -1
1 149 -1
2 3 1
2 7 -1
2 8 1
2 9 -1
2 13 -1
2 15 1
2 19 -1
2 28 1
2 30 1
2 34 1
2 35 1
2 36 -1
2 48 -1
2 49 1
2 61 1
2 62 -1
2 65 1
2 67 -1
2 68 -1
2 70 -1
2 71 -1
2 76 1
2 80 1
2 87 -1
2 90 -1
2 91 1
2 92 -1
2 96 -1
2 105 1
2 110 1
2 121 1
2 122 -1
2 131 1
2 132 1
2 136 1
2 150 1
3 5 1
3 9 -1
3 11 -1
3 12 -1
3 15 -1
3 17 1
3 19 -1
3 22 1
3 23 -1
3 25 -1
3 33 1
3 37 1
3 43 -1
3 45 1
3 52 -1
3 59 -1
3 60 1
3 67 1
3 69 -1
3 71 1
3 85 -1
3 92 -1
3 97 -1
3 99 1
3 100 1
3 102 1
3 106 1
3 109 1
3 112 1
3 114 1
3 125 -1
3 127 -1
3 129 -1
3 136 1
3 137 -1
3 141 -1
3 144 1
4 13 -1
4 23 -1
4 25 1
4 30 1
4 32 1
4 41 1
4 42 -1
4 50 1
4 51 -1
4 56 -1
4 62 1
4 63 -1
4 66 -1
4 68 1
4 71 -1
4 72 1
4 80 1
4 82 -1
4 84 -1
4 91 -1
4 92 1
4 93 1
4 95 -1
4 99 -1
4 115 1
4 116 1
4 121 -1
4 123 1
4 130 -1
4 134 1
4 135 -1
4 137 1
4 141 -1
4 149 -1
5 17 1
5 19 1
5 22 -1
5 25 1
5 36 1
5 44 -1
5 46 1
5 48 -1
5 49 -1
5 56 -1
5 57 1
5 63 -1
5 66 1
5 81 1
5 83 1
5 84 -1
5 86 1
5 87 1
5 93 -1
5 95 -1
5 104 1
5 108 1
5 111 -1
5 112 1
5 117 1
5 123 -1
5 125 -1
5 127 1
5 131 -1
5 132 1
5 134 -1
5 135 -1
5 137 1
5 142 1
5 144 -1
5 146 -1
6 13 -1
6 14 1
6 16 -1
6 31 1
6 49 -1
6 70 1
6 72 -1
6 78 -1
6 80 1
6 84 1
6 87 -1
6 89 1
6 94 1
6 96 -1
6 97 1
6 102 -1
6 106 -1
6 108 1
6 111 -1
6 112 -1
6 117 1
6 119 1
6 137 -1
6 139 1
6 140 1
6 144 1
6 147 -1
7 9 1
7 12 1
7 13 1
7 15 -1
7 25 -1
7 26 1
7 34 -1
7 40 -1
7 49 1
7 58 1
7 59 -1
7 75 -1
7 78 1
7 80 -1
7 90 -1
7 91 -1
7 96 1
7 100 1
7 101 -1
7 115 -1
7 117 1
7 118 -1
7 119 1
7 121 -1
7 126 1
7 127 1
7 132 1
7 135 -1
7 145 1
7 146 -1
7 149 1
8 10 -1
8 18 -1
8 23 1
8 31 1
8 34 1
8 39 -1
8 42 -1
8 51 1
8 52 1
8 55 1
8 56 1
8 65 -1
8 66 1
8 71 -1
8 72 1
8 74 1
8 77 -1
8 80 1
8 84 -1
8 91 1
8 95 1
8 103 1
8 117 1
8 118 -1
8 124 -1
8 125 1
8 130 -1
8 138 1
8 139 -1
8 140 1
8 143 1
8 149 -1
9 17 1
9 23 -1
9 24 -1
9 25 1
9 28 -1
9 29 1
9 32 1
9 33 1
9 38 1
9 40 1
9 44 -1
9 45 -1
9 54 1
9 55 1
9 59 -1
9 61 -1
9 63 1
9 64 -1
9 70 1
9 76 1
9 77 1
9 79 -1
9 80 1
9 87 -1
9 98 -1
9 103 1
9 104 -1
9 105 1
9 113 1
9 119 -1
9 125 1
9 129 -1
9 130 1
9 133 1
9 136 1
9 138 1
9 140 1
9 142 -1
9 143 -1
9 147 -1
9 148 -1
9 150 1
10 12 -1
10 20 -1
10 28 -1
10 34 1
10 39 -1
10 41 1
10 44 -1
10 46 -1
10 48 -1
10 49 -1
10 54 -1
10 55 1
10 61 1
10 71 1
10 74 -1
10 78 -1
10 81 1
10 83 -1
10 85 1
10 87 -1
10 89 1
10 90 -1
10 93 -1
10 95 -1
10 96 -1
10 98 1
10 100 1
10 106 -1
10 107 -1
10 109 -1
10 115 1
10 116 -1
10 117 -1
10 124 -1
10 130 1
10 131 -1
10 133 -1
10 134 1
10 136 1
10 140 1
10 141 -1
10 149 -1
11 14 1
11 16 -1
11 24 1
11 25 -1
11 30 -1
11 43 -1
11 45 1
11 50 -1
11 61 1
11 66 -1
11 75 -1
11 83 -1
11 85 -1
11 89 1
11 95 -1
11 99 -1
11 107 1
11 110 -1
11 113 1
11 115 -1
11 116 -1
11 118 1
11 124 -1
11 130 -1
11 131 1
11 132 -1
11 139 1
11 141 1
11 142 1
11 144 1
11 149 -1
12 17 -1
12 21 1
12 25 1
12 30 -1
12 41 -1
12 45 1
12 46 -1
12 48 1
12 61 1
12 62 1
12 65 -1
12 67 1
12 70 1
12 72 -1
12 73 1
12 85 1
12 87 1
12 92 1
12 93 -1
12 95 1
12 99 1
12 106 1
12 117 1
12 118 -1
12 120 -1
12 122 1
12 123 -1
12 128 -1
12 129 1
12 133 1
12 134 1
12 135 1
12 136 -1
12 137 1
12 141 1
12 145 -1
12 150 1
13 14 -1
13 16 -1
13 17 1
13 22 -1
13 34 1
13 36 1
13 37 -1
13 51 1
13 55 -1
13 56 -1
13 63 1
13 64 -1
13 65 1
13 69 1
13 70 1
13 71 -1
13 74 1
13 75 1
13 77 1
13 79 -1
13 81 1
13 82 -1
13 88 1
13 97 1
13 104 -1
13 115 -1
13 116 -1
13 118 1
13 119 1
13 122 -1
13 123 1
13 125 -1
13 133 -1
13 135 1
13 139 -1
13 140 -1
13 142 1
13 147 1
14 16 1
14 17 -1
14 18 1
14 20 -1
14 28 1
14 33 -1
14 34 -1
14 37 -1
14 41 1
14 45 1
14 50 -1
14 55 -1
14 70 1
14 71 -1
14 78 -1
14 80 -1
14 81 1
14 83 1
14 91 1
14 94 1
14 95 -1
14 96 -1
14 97 1
14 99 1
14 109 -1
14 110 -1
14 114 -1
14 116 1
14 120 1
14 122 -1
14 127 -1
14 131 -1
14 138 -1
14 140 1
14 146 -1
14 148 1
14 149 -1
15 16 -1
15 23 1
15 24 1
15 25 -1
15 30 1
15 35 -1
15 37 -1
15 39 -1
15 48 1
15 52 1
15 55 -1
15 63 -1
15 74 -1
15 80 -1
15 81 1
15 82 -1
15 84 1
15 86 1
15 88 -1
15 89 1
15 98 1
15 116 -1
15 119 1
15 124 1
15 127 -1
15 129 1
15 131 -1
15 135 -1
15 136 1
15 141 -1
15 142 1
16 20 -1
16 26 -1
16 31 1
16 36 -1
16 43 1
16 45 -1
16 55 -1
16 59 -1
16 68 1
16 79 -1
16 90 1
16 98 1
16 101 -1
16 102 -1
16 110 -1
16 118 -1
16 132 1
16 138 -1
16 142 1
16 145 -1
16 146 1
16 149 1
17 19 -1
17 21 1
17 23 1
17 27 -1
17 30 1
17 35 -1
17 41 -1
17 48 -1
17 54 -1
17 55 1
17 66 -1
17 67 1
17 68 1
17 75 -1
17 77 -1
17 78 -1
17 79 -1
17 81 -1
17 83 1
17 85 -1
17 91 1
17 95 -1
17 96 -1
17 99 -1
17 103 -1
17 110 -1
17 114 -1
17 119 1
17 120 1
17 121 -1
17 122 1
17 125 1
17 133 1
17 135 1
17 138 1
17 144 1
17 145 -1
17 149 1
18 21 -1
18 25 -1
18 26 -1
18 32 -1
18 37 1
18 41 1
18 42 -1
18 43 1
18 48 1
18 53 1
18 54 1
18 58 1
18 63 1
18 66 1
18 71 -1
18 75 -1
18 77 -1
18 79 -1
18 83 1
18 88 1
18 92 -1
18 93 1
18 96 1
18 99 -1
18 102 1
18 107 -1
18 108 -1
18 110 -1
18 117 -1
18 119 1
18 120 -1
18 132 1
18 137 -1
18 143 1
18 149 1
19 23 -1
19 28 1
19 32 -1
19 35 -1
19 38 -1
19 41 1
19 48 1
19 50 -1
19 57 -1
19 58 1
19 61 1
19 63 1
19 83 -1
19 86 1
19 89 1
19 91 -1
19 93 -1
19 103 1
19 104 1
19 105 1
19 109 1
19 112 1
19 113 -1
19 117 1
19 119 -1
19 124 -1
19 125 -1
19 129 1
19 134 1
19 139 1
19 142 1
19 145 -1
20 35 -1
20 36 -1
20 38 -1
20 39 -1
20 42 1
20 45 -1
20 46 1
20 53 -1
20 60 1
20 61 1
20 68 1
20 71 -1
20 74 -1
20 82 -1
20 84 -1
20 85 1
20 86 1
20 100 1
20 104 -1
20 114 1
20 119 1
20 123 -1
20 128 1
20 129 -1
20 138 -1
20 142 1
20 146 -1
20 150 -1
21 22 1
21 24 1
21 30 -1
21 35 -1
21 37 1
21 42 -1
21 43 1
21 48 -1
21 53 -1
21 54 -1
21 61 -1
21 68 -1
21 77 1
21 81 -1
21 85 -1
21 90 1
21 96 -1
21 97 1
21 102 1
21 104 1
21 105 -1
21 110 1
21 114 1
21 115 1
21 117 -1
21 118 -1
21 119 1
21 122 1
21 123 -1
21 128 -1
21 138 1
21 148 1
22 35 1
22 42 -1
22 47 1
22 51 1
22 52 -1
22 53 1
22 62 -1
22 66 -1
22 73 1
22 83 1
22 87 -1
22 90 -1
22 92 -1
22 99 1
22 102 -1
22 112 1
22 118 1
22 119 1
22 122 -1
22 123 -1
22 124 -1
22 128 1
22 132 -1
22 143 1
22 145 -1
23 24 1
23 38 1
23 40 1
23 41 1
23 42 1
23 47 1
23 51 1
23 60 1
23 61 -1
23 62 -1
23 66 -1
23 67 -1
23 70 -1
23 71 -1
23 81 -1
23 82 1
23 84 -1
23 93 1
23 96 -1
23 98 -1
23 99 -1
23 103 1
23 105 1
23 106 -1
23 107 -1
23 116 -1
23 117 1
23 118 1
23 128 1
23 141 -1
23 142 1
23 145 -1
23 147 1
23 150 -1
24 27 -1
24 35 1
24 36 -1
24 41 1
24 44 -1
24 45 -1
24 58 1
24 68 -1
24 71 1
24 72 -1
24 78 -1
24 81 -1
24 84 -1
24 91 1
24 93 -1
24 94 -1
24 98 1
24 100 1
24 101 1
24 106 1
24 107 -1
24 111 1
24 115 -1
24 126 -1
24 127 -1
24 135 1
24 140 1
24 143 -1
24 148 1
25 28 -1
25 29 -1
25 38 -1
25 40 -1
25 46 1
25 50 1
25 65 1
25 68 1
25 69 -1
25 70 -1
25 74 1
25 75 1
25 78 1
25 88 -1
25 92 -1
25 95 1
25 102 1
25 117 -1
25 123 1
25 127 1
25 129 1
25 130 -1
25 139 1
25 140 -1
25 150 -1
26 29 1
26 30 -1
26 31 -1
26 36 1
26 37 -1
26 38 1
26 43 -1
26 45 1
26 47 -1
26 55 -1
26 56 -1
26 59 -1
26 67 -1
26 73 -1
26 76 1
26 79 -1
26 83 -1
26 84 -1
26 88 1
26 94 -1
26 96 1
26 99 1
26 101 1
26 117 -1
26 127 -1
26 130 -1
26 145 -1
26 150 1
27 30 -1
27 31 1
27 33 -1
27 36 1
27 37 -1
27 41 -1
27 44 -1
27 46 1
27 47 -1
27 54 -1
27 56 -1
27 61 1
27 65 -1
27 67 -1
27 70 1
27 73 -1
27 75 1
27 77 -1
27 82 -1
27 85 1
27 93 -1
27 97 1
27 102 1
27 104 -1
27 111 -1
27 115 1
27 122 -1
27 125 1
27 129 -1
27 130 -1
27 134 -1
27 135 -1
27 141 1
27 145 -1
27 146 1
27 147 -1
27 149 1
28 34 1
28 36 -1
28 45 1
28 46 1
28 48 1
28 49 1
28 53 -1
28 57 1
28 60 1
28 63 1
28 66 -1
28 68 -1
28 72 1
28 77 1
28 78 -1
28 86 1
28 89 1
28 92 1
28 94 -1
28 100 1
28 101 1
28 117 1
28 119 1
28 121 1
28 122 -1
28 126 1
28 128 -1
28 131 -1
28 132 -1
28 137 1
28 138 1
28 141 -1
28 143 1
28 145 1
28 148 1
28 149 -1
29 30 -1
29 36 -1
29 37 -1
29 38 -1
29 43 1
29 44 1
29 46 1
29 56 1
29 62 1
29 66 -1
29 70 1
29 71 1
29 83 -1
29 86 1
29 87 1
29 91 1
29 93 -1
29 94 1
29 96 -1
29 98 1
29 99 -1
29 105 -1
29 114 1
29 121 -1
29 137 1
29 142 -1
29 146 1
29 147 -1
29 149 1
30 31 -1
30 35 1
30 37 1
30 44 -1
30 47 1
30 48 -1
30 53 1
30 54 1
30 64 1
30 69 1
30 79 -1
30 82 -1
30 86 1
30 93 1
30 96 -1
30 97 1
30 101 -1
30 114 1
30 115 -1
30 116 1
30 124 -1
30 127 1
30 131 1
30 132 -1
30 134 1
30 137 -1
30 139 -1
30 145 1
30 147 1
30 149 -1
31 36 -1
31 38 1
31 39 1
31 47 1
31 48 1
31 50 -1
31 51 1
31 54 1
31 58 1
31 59 1
31 60 -1
31 63 -1
31 67 -1
31 72 1
31 73 -1
31 82 -1
31 83 -1
31 86 1
31 91 -1
31 94 1
31 97 1
31 103 -1
31 107 -1
31 108 1
31 111 1
31 114 1
31 122 1
31 124 -1
31 125 -1
31 126 -1
31 129 1
31 131 -1
31 140 1
31 143 1
31 144 -1
31 149 -1
32 35 1
32 37 1
32 47 1
32 48 1
32 51 -1
32 55 -1
32 69 -1
32 71 -1
32 86 1
32 88 1
32 90 1
32 96 1
32 100 1
32 110 1
32 123 1
32 127 -1
32 128 1
32 133 -1
32 135 1
32 136 1
32 138 1
32 140 -1
32 142 -1
32 143 -1
32 148 1
32 150 1
33 34 1
33 36 -1
33 37 -1
33 39 1
33 40 1
33 43 -1
33 49 1
33 54 -1
33 60 1
33 68 -1
33 70 -1
33 71 -1
33 73 1
33 75 1
33 77 1
33 78 -1
33 83 -1
33 87 -1
33 88 -1
33 91 1
33 96 -1
33 97 1
33 98 1
33 101 1
33 102 -1
33 104 -1
33 107 -1
33 117 -1
33 120 -1
33 122 -1
33 124 -1
33 125 1
33 128 -1
33 130 1
33 139 1
33 141 -1
33 148 1
33 149 -1
33 150 1
34 37 -1
34 40 1
34 41 1
34 53 1
34 55 1
34 59 1
34 62 1
34 66 1
34 69 -1
34 73 -1
34 74 1
34 76 1
34 85 -1
34 86 -1
34 89 -1
34 90 1
34 93 -1
34 99 -1
34 102 -1
34 114 1
34 115 -1
34 117 1
34 118 -1
34 121 1
34 122 -1
34 123 1
34 127 -1
34 129 1
34 131 1
34 132 -1
34 134 1
34 135 -1
34 138 1
34 140 1
34 142 -1
34 145 -1
35 38 1
35 51 1
35 52 -1
35 55 1
35 56 -1
35 58 1
35 60 -1
35 61 1
35 62 1
35 63 -1
35 64 1
35 71 -1
35 74 1
35 76 -1
35 77 -1
35 89 1
35 103 -1
35 113 1
35 117 1
35 120 1
35 121 -1
35 126 -1
35 130 1
35 132 -1
35 133 1
35 141 1
35 144 1
35 146 -1
35 147 1
36 40 -1
36 43 1
36 44 -1
36 47 1
36 52 -1
36 55 1
36 57 -1
36 58 1
36 60 -1
36 63 1
36 67 -1
36 70 -1
36 73 1
36 75 -1
36 78 1
36 79 1
36 80 -1
36 81 -1
36 82 1
36 84 -1
36 87 1
36 90 -1
36 95 1
36 103 -1
36 109 1
36 115 1
36 121 -1
36 124 1
36 125 1
36 139 1
36 141 -1
36 144 -1
36 146 -1
36 147 1
37 47 1
37 48 1
37 52 1
37 64 1
37 66 1
37 70 -1
37 73 -1
37 77 1
37 79 1
37 84 1
37 94 1
37 96 1
37 98 -1
37 99 1
37 101 -1
37 102 -1
37 104 -1
37 108 1
37 109 -1
37 111 1
37 112 1
37 115 1
37 128 -1
37 129 -1
37 133 1
37 147 -1
38 39 1
38 50 1
38 51 1
38 53 -1
38 60 -1
38 62 1
38 66 -1
38 70 1
38 75 -1
38 76 1
38 77 1
38 80 1
38 84 -1
38 92 1
38 96 -1
38 99 -1
38 106 1
38 109 1
38 110 -1
38 111 -1
38 112 -1
38 116 1
38 120 -1
38 125 1
38 128 -1
38 135 1
38 139 -1
38 142 -1
39 47 -1
39 48 -1
39 58 1
39 59 1
39 65 -1
39 78 -1
39 89 1
39 102 1
39 105 -1
39 108 1
39 114 -1
39 115 1
39 116 -1
39 119 1
39 125 -1
39 135 -1
39 140 -1
39 145 1
39 147 -1
39 148 -1
39 150 1
40 43 -1
40 46 1
40 50 -1
40 51 1
40 56 -1
40 57 1
40 60 1
40 62 1
40 64 -1
40 67 1
40 68 1
40 79 -1
40 85 -1
40 93 1
40 100 -1
40 103 1
40 108 1
40 110 1
40 115 -1
40 117 1
40 118 -1
40 120 1
40 121 1
40 123 1
40 126 -1
40 130 -1
40 131 1
40 132 1
40 133 1
40 134 -1
40 135 1
40 140 1
40 142 1
41 46 1
41 48 1
41 57 -1
41 69 1
41 75 1
41 80 -1
41 83 1
41 87 -1
41 88 1
41 92 -1
41 95 1
41 97 1
41 98 -1
41 106 1
41 110 -1
41 113 1
41 118 -1
41 121 1
41 123 1
41 125 -1
41 127 -1
41 131 -1
41 132 -1
41 136 -1
41 137 1
41 141 1
41 142 -1
41 143 1
41 146 -1
41 149 -1
42 47 -1
42 50 1
42 52 1
42 53 1
42 63 -1
42 64 -1
42 68 1
42 70 1
42 81 -1
42 86 -1
42 87 -1
42 94 -1
42 97 1
42 100 -1
42 103 1
42 104 1
42 121 -1
42 122 -1
42 124 1
42 131 1
42 133 1
42 135 1
42 136 1
42 138 1
42 140 1
42 144 1
42 147 1
43 55 -1
43 56 -1
43 58 -1
43 60 1
43 61 -1
43 67 1
43 74 -1
43 77 -1
43 82 1
43 83 1
43 89 -1
43 93 1
43 97 -1
43 100 -1
43 102 -1
43 108 1
43 109 1
43 112 -1
43 115 -1
43 116 -1
43 121 -1
43 124 1
43 136 1
43 137 1
43 138 1
43 144 1
44 51 1
44 59 1
44 62 1
44 73 1
44 79 -1
44 82 1
44 86 1
44 96 1
44 101 -1
44 106 -1
44 110 -1
44 113 1
44 119 1
44 120 1
44 128 1
44 130 -1
44 139 1
44 144 1
44 148 -1
44 149 1
45 46 -1
45 49 1
45 60 -1
45 64 -1
45 75 1
45 76 1
45 84 -1
45 94 1
45 95 1
45 99 1
45 100 -1
45 103 -1
45 106 1
45 107 1
45 110 1
45 112 -1
45 113 -1
45 118 -1
45 119 -1
45 133 1
45 135 -1
45 150 1
46 47 -1
46 49 1
46 53 -1
46 68 -1
46 82 -1
46 88 -1
46 89 1
46 91 -1
46 94 1
46 101 -1
46 106 1
46 109 -1
46 111 -1
46 123 -1
46 126 -1
46 129 -1
46 135 -1
46 141 -1
46 150 -1
47 50 1
47 53 1
47 63 -1
47 65 -1
47 66 1
47 69 1
47 71 -1
47 81 -1
47 85 1
47 89 1
47 90 1
47 94 1
47 100 -1
47 101 -1
47 109 1
47 110 1
47 113 1
47 120 -1
47 121 -1
47 122 1
47 125 1
48 49 -1
48 59 1
48 67 1
48 69 1
48 70 -1
48 71 -1
48 76 -1
48 77 -1
48 82 -1
48 85 1
48 87 1
48 91 -1
48 109 -1
48 118 -1
48 120 -1
48 123 -1
48 128 -1
48 130 1
48 134 -1
48 143 1
48 148 -1
48 150 -1
49 53 -1
49 59 1
49 62 1
49 69 -1
49 75 1
49 80 -1
49 84 -1
49 85 -1
49 88 -1
49 89 -1
49 98 -1
49 101 1
49 113 1
49 114 -1
49 122 1
49 126 1
49 127 1
49 128 1
49 133 -1
49 141 1
49 143 -1
49 144 -1
49 145 -1
49 147 1
50 52 -1
50 54 1
50 56 1
50 62 1
50 65 -1
50 68 -1
50 71 -1
50 73 1
50 74 -1
50 75 1
50 76 -1
50 87 -1
50 90 1
50 92 -1
50 93 -1
50 100 1
50 103 -1
50 106 1
50 107 -1
50 109 -1
50 110 -1
50 111 -1
50 114 1
50 117 -1
50 123 1
50 125 -1
50 127 1
50 128 -1
50 129 -1
50 131 -1
50 134 1
50 135 1
50 145 1
50 146 -1
51 58 -1
51 60 -1
51 62 1
51 67 1
51 71 -1
51 74 -1
51 90 1
51 91 -1
51 94 -1
51 95 -1
51 97 -1
51 98 -1
51 100 1
51 103 1
51 104 1
51 108 1
51 116 1
51 118 1
51 123 1
51 126 -1
51 130 1
51 135 -1
51 136 -1
51 139 -1
51 144 -1
51 145 -1
51 148 -1
52 53 1
52 55 -1
52 67 1
52 71 -1
52 83 -1
52 85 1
52 93 -1
52 99 -1
52 100 -1
52 105 1
52 107 -1
52 111 -1
52 113 -1
52 116 -1
52 122 1
52 133 1
52 134 -1
52 136 1
52 141 -1
52 143 -1
52 145 -1
52 146 -1
53 57 1
53 62 1
53 63 1
53 66 -1
53 72 1
53 73 -1
53 76 -1
53 80 1
53 81 -1
53 83 -1
53 85 1
53 87 1
53 91 1
53 98 1
53 99 1
53 100 -1
53 103 1
53 115 1
53 116 -1
53 119 -1
53 123 -1
53 128 -1
53 136 -1
53 147 -1
53 150 -1
54 59 -1
54 61 -1
54 66 -1
54 69 1
54 75 -1
54 81 -1
54 93 -1
54 94 -1
54 98 -1
54 111 1
54 120 -1
54 127 1
54 135 -1
54 137 -1
54 138 -1
54 140 -1
54 142 1
54 149 -1
55 60 1
55 62 -1
55 63 1
55 67 1
55 68 1
55 70 -1
55 71 1
55 77 1
55 79 1
55 80 -1
55 83 -1
55 89 1
55 91 1
55 94 1
55 98 -1
55 104 1
55 106 1
55 107 -1
55 108 1
55 110 -1
55 112 1
55 117 -1
55 118 1
55 123 -1
55 130 1
55 131 1
55 134 -1
55 138 1
55 147 -1
55 149 -1
56 62 1
56 65 1
56 68 -1
56 69 -1
56 78 1
56 81 1
56 84 1
56 94 -1
56 108 -1
56 111 -1
56 117 1
56 120 -1
56 125 -1
56 137 1
56 143 1
56 144 1
56 145 1
56 147 -1
57 62 -1
57 63 -1
57 64 -1
57 67 1
57 71 1
57 73 1
57 75 1
57 78 -1
57 79 1
57 82 -1
57 83 1
57 84 -1
57 85 1
57 87 1
57 93 -1
57 94 1
57 95 -1
57 96 -1
57 97 1
57 106 1
57 121 -1
57 122 -1
57 127 1
57 128 -1
57 134 1
57 137 1
57 141 1
57 143 -1
57 148 -1
57 150 1
58 64 -1
58 68 1
58 70 1
58 72 -1
58 76 1
58 81 -1
58 85 1
58 91 1
58 92 -1
58 94 1
58 100 1
58 102 1
58 105 -1
58 106 -1
58 108 -1
58 113 -1
58 119 1
58 124 1
58 127 -1
58 131 -1
58 132 1
58 134 -1
58 135 -1
58 142 -1
58 148 -1
58 150 -1
59 62 -1
59 69 1
59 72 1
59 75 1
59 88 -1
59 89 1
59 90 -1
59 93 1
59 95 1
59 97 -1
59 99 -1
59 114 -1
59 121 -1
59 124 -1
59 133 -1
59 139 -1
59 142 -1
59 146 -1
60 63 -1
60 64 1
60 66 -1
60 68 -1
60 71 -1
60 75 -1
60 76 1
60 80 -1
60 86 1
60 98 1
60 102 -1
60 105 1
60 109 -1
60 110 -1
60 115 -1
60 119 -1
60 121 1
60 122 -1
60 128 -1
60 130 -1
60 131 1
60 135 1
60 140 -1
60 146 1
60 149 1
60 150 1
61 68 -1
61 72 1
61 73 -1
61 74 -1
61 87 1
61 88 -1
61 89 -1
61 90 -1
61 97 1
61 98 1
61 100 -1
61 101 1
61 109 -1
61 115 1
61 119 1
61 125 -1
61 126 1
61 128 -1
61 132 1
61 139 1
61 142 -1
61 143 -1
62 63 1
62 64 -1
62 68 1
62 71 1
62 77 1
62 79 1
62 80 1
62 85 -1
62 88 -1
62 92 1
62 94 -1
62 113 -1
62 114 -1
62 116 -1
62 117 -1
62 119 1
62 124 -1
62 125 1
62 132 1
62 133 1
62 135 -1
63 66 -1
63 72 1
63 73 -1
63 75 1
63 76 -1
63 78 -1
63 87 1
63 88 -1
63 90 -1
63 91 1
63 92 -1
63 93 1
63 96 -1
63 97 -1
63 100 -1
63 105 -1
63 108 1
63 113 -1
63 114 -1
63 115 -1
63 121 -1
63 124 1
63 128 -1
63 129 1
63 134 -1
63 145 -1
63 146 1
63 147 1
63 148 1
64 73 1
64 80 -1
64 81 -1
64 82 1
64 84 1
64 89 1
64 97 1
64 100 -1
64 106 -1
64 107 -1
64 115 -1
64 118 1
64 129 -1
64 140 1
64 141 -1
64 144 1
64 145 -1
64 147 -1
64 148 1
65 67 -1
65 72 -1
65 76 -1
65 79 1
65 80 1
65 82 1
65 87 1
65 89 -1
65 90 -1
65 107 1
65 109 1
65 119 1
65 122 1
65 125 -1
65 127 -1
65 128 -1
65 136 1
65 137 -1
65 138 1
65 140 -1
65 145 -1
66 68 -1
66 77 -1
66 89 -1
66 95 1
66 101 1
66 113 -1
66 114 -1
66 116 1
66 122 -1
66 130 1
66 131 -1
66 132 1
66 133 1
66 136 1
66 139 -1
66 146 1
66 150 -1
67 73 1
67 77 1
67 79 -1
67 86 -1
67 88 1
67 90 1
67 92 -1
67 94 -1
67 97 1
67 98 1
67 110 1
67 111 -1
67 114 -1
67 118 -1
67 131 1
67 133 1
67 134 1
67 136 1
67 139 -1
67 140 1
67 141 -1
67 142 1
67 143 1
67 145 -1
68 75 -1
68 76 -1
68 78 -1
68 79 1
68 89 1
68 91 -1
68 97 1
68 98 -1
68 101 1
68 102 -1
68 110 -1
68 115 1
68 117 1
68 129 -1
68 134 -1
68 147 1
69 79 1
69 80 -1
69 84 1
69 85 1
69 86 -1
69 93 -1
69 96 -1
69 102 1
69 103 -1
69 105 -1
69 113 1
69 115 -1
69 120 -1
69 123 -1
69 130 1
69 142 -1
69 144 -1
69 145 1
69 149 -1
70 78 1
70 82 1
70 83 -1
70 87 -1
70 89 -1
70 93 -1
70 95 1
70 98 -1
70 99 -1
70 100 -1
70 105 -1
70 109 1
70 113 1
70 119 1
70 121 1
70 125 -1
70 129 -1
70 130 1
70 132 1
70 136 1
70 139 1
70 141 -1
70 142 1
70 144 -1
70 147 1
71 75 1
71 84 -1
71 87 1
71 91 -1
71 101 1
71 105 1
71 111 1
71 124 -1
71 129 -1
71 145 -1
71 147 1
71 150 -1
72 75 -1
72 77 1
72 79 -1
72 81 -1
72 89 1
72 96 1
72 97 1
72 110 -1
72 111 1
72 114 1
72 116 1
72 121 1
72 126 -1
72 133 -1
72 134 1
72 135 1
72 141 1
72 150 -1
73 85 1
73 98 1
73 102 -1
73 107 -1
73 108 -1
73 110 -1
73 111 1
73 130 -1
73 132 -1
73 133 -1
73 138 -1
73 140 1
73 148 1
74 81 1
74 83 -1
74 86 1
74 87 1
74 91 1
74 92 -1
74 94 1
74 98 -1
74 102 -1
74 105 1
74 106 -1
74 119 1
74 123 1
74 143 1
75 76 1
75 79 1
75 82 -1
75 85 1
75 86 1
75 87 -1
75 90 -1
75 93 1
75 100 -1
75 104 -1
75 106 -1
75 111 1
75 112 1
75 113 -1
75 114 1
75 115 1
75 116 -1
75 117 1
75 122 1
75 133 -1
75 138 1
75 140 1
76 85 -1
76 89 1
76 94 -1
76 95 -1
76 96 1
76 108 -1
76 112 1
76 116 1
76 118 -1
76 120 -1
76 125 1
76 128 1
76 134 -1
76 139 -1
76 143 1
77 78 1
77 87 -1
77 88 -1
77 89 1
77 93 1
77 97 -1
77 106 1
77 118 -1
77 126 -1
77 128 1
77 136 -1
77 138 1
77 140 -1
77 148 -1
77 149 1
78 87 -1
78 90 -1
78 94 1
78 98 -1
78 103 1
78 106 -1
78 107 1
78 109 1
78 115 1
78 122 1
78 123 -1
78 125 1
78 126 1
78 134 1
78 142 -1
79 80 1
79 81 1
79 86 1
79 88 -1
79 94 -1
79 107 1
79 110 -1
79 119 1
79 122 -1
79 134 -1
79 138 1
79 139 1
79 143 -1
79 144 -1
79 145 -1
80 81 1
80 83 -1
80 92 -1
80 99 -1
80 105 -1
80 106 1
80 108 1
80 111 1
80 118 1
80 119 1
80 122 -1
80 124 1
80 126 1
80 131 1
80 136 1
80 142 -1
80 145 -1
80 150 1
81 82 1
81 86 1
81 88 -1
81 89 -1
81 92 1
81 98 1
81 101 -1
81 106 1
81 107 -1
81 109 1
81 110 1
81 125 -1
81 131 1
81 143 -1
81 147 -1
81 148 -1
82 88 -1
82 89 -1
82 96 -1
82 111 1
82 112 1
82 115 -1
82 117 1
82 121 -1
82 123 -1
82 124 1
82 129 -1
82 130 1
82 147 1
82 149 1
82 150 -1
83 85 1
83 86 1
83 90 -1
83 95 -1
83 98 1
83 101 -1
83 105 1
83 107 -1
83 111 -1
83 117 1
83 121 -1
83 131 1
83 134 -1
83 135 -1
83 136 1
83 142 -1
83 143 1
83 148 1
84 86 -1
84 87 -1
84 90 1
84 92 -1
84 98 1
84 99 -1
84 110 -1
84 114 -1
84 121 -1
84 125 1
84 135 1
84 141 1
84 147 -1
85 86 -1
85 88 1
85 93 1
85 97 1
85 112 -1
85 114 -1
85 132 -1
85 133 1
85 134 1
85 140 -1
85 141 -1
85 142 -1
85 145 1
85 148 1
85 150 -1
86 88 -1
86 90 1
86 94 -1
86 99 -1
86 101 1
86 104 -1
86 105 -1
86 109 1
86 112 1
86 123 1
86 125 1
86 136 1
86 138 1
86 139 -1
86 146 1
87 90 1
87 102 1
87 110 -1
87 111 1
87 114 1
87 115 -1
87 116 1
87 118 1
87 124 1
87 128 -1
87 133 1
87 136 -1
87 141 -1
88 94 -1
88 96 -1
88 99 1
88 100 -1
88 105 1
88 112 -1
88 118 1
88 123 -1
88 124 -1
88 126 1
88 127 -1
88 140 -1
88 141 1
88 143 -1
88 144 -1
88 149 1
89 97 1
89 108 -1
89 109 1
89 112 1
89 114 -1
89 120 -1
89 126 -1
89 127 -1
89 129 1
89 134 1
89 136 -1
89 139 -1
89 141 -1
89 144 1
89 146 -1
89 147 1
89 148 -1
90 95 -1
90 97 1
90 98 1
90 104 1
90 107 -1
90 110 1
90 111 1
90 119 -1
90 124 -1
90 138 1
90 139 -1
90 140 -1
90 141 1
90 149 1
91 102 1
91 111 1
91 115 1
91 120 1
91 123 -1
91 124 1
91 127 -1
91 136 1
91 140 -1
91 148 1
91 150 1
92 106 -1
92 109 1
92 111 1
92 116 -1
92 117 1
92 119 1
92 122 1
92 125 -1
92 129 -1
92 131 -1
92 132 -1
93 95 -1
93 98 -1
93 99 1
93 104 1
93 108 1
93 114 -1
93 115 1
93 133 1
93 134 1
93 146 -1
93 149 -1
94 95 -1
94 119 1
94 122 1
94 128 -1
94 129 -1
94 133 -1
94 138 1
94 140 1
94 145 -1
94 149 -1
95 101 1
95 104 -1
95 107 1
95 112 -1
95 117 1
95 121 1
95 127 1
95 133 -1
95 135 1
95 136 1
95 137 -1
95 139 -1
95 141 1
95 142 -1
95 144 -1
96 105 -1
96 106 1
96 109 1
96 120 1
96 131 -1
96 145 -1
96 149 -1
97 99 -1
97 101 1
97 105 1
97 106 -1
97 108 1
97 111 1
97 113 -1
97 117 -1
97 119 1
97 131 -1
97 132 1
97 136 1
97 137 1
97 138 -1
97 140 -1
97 142 1
97 146 -1
98 99 -1
98 102 1
98 106 -1
98 107 1
98 108 -1
98 116 1
98 120 -1
98 122 1
98 123 -1
98 124 -1
98 130 -1
98 132 -1
98 150 -1
99 101 -1
99 103 1
99 106 1
99 107 -1
99 108 -1
99 110 1
99 112 -1
99 113 1
99 115 -1
99 119 -1
99 122 1
99 125 -1
99 131 -1
99 133 -1
99 134 -1
99 141 -1
99 146 1
99 147 1
100 107 -1
100 108 1
100 109 -1
100 111 1
100 121 1
100 125 -1
100 126 -1
100 132 -1
100 137 1
100 139 1
100 140 -1
100 147 1
100 148 -1
100 150 1
101 106 -1
101 107 1
101 114 -1
101 117 -1
101 121 1
101 126 -1
101 128 -1
101 129 -1
101 134 1
101 136 1
101 143 -1
101 144 -1
101 145 -1
101 146 -1
101 148 -1
102 107 1
102 118 -1
102 119 -1
102 121 -1
102 124 -1
102 127 1
102 133 1
102 134 -1
102 135 1
102 141 -1
102 149 -1
103 107 1
103 117 -1
103 119 1
103 125 -1
103 126 -1
103 129 1
103 131 1
103 142 1
103 147 1
104 108 1
104 113 1
104 114 1
104 116 1
104 120 1
104 123 1
104 126 -1
104 128 1
104 130 1
104 132 1
104 136 1
104 137 1
104 138 1
104 141 -1
104 142 1
104 143 1
105 113 1
105 114 -1
105 120 1
105 123 1
105 125 1
105 131 1
105 137 -1
105 143 -1
106 109 1
106 115 1
106 117 -1
106 119 1
106 123 1
106 124 1
106 126 1
106 127 -1
106 129 1
106 131 -1
106 136 -1
106 138 1
106 140 -1
107 116 1
107 117 -1
107 123 1
107 129 1
107 139 1
107 146 -1
108 118 -1
108 121 -1
108 124 1
108 127 -1
108 128 -1
108 131 1
108 132 1
108 133 -1
108 134 -1
108 143 1
109 110 -1
109 115 1
109 128 -1
109 132 -1
109 137 1
109 138 -1
109 139 1
109 142 -1
109 144 -1
109 146 1
109 149 -1
109 150 -1
110 111 -1
110 115 1
110 118 -1
110 127 -1
110 131 1
110 141 1
110 142 1
110 143 -1
110 146 -1
110 148 -1
110 150 -1
111 114 -1
111 121 1
111 134 -1
111 137 1
111 141 -1
112 118 -1
112 125 -1
112 135 -1
112 136 1
112 137 -1
112 139 1
112 141 -1
112 143 1
112 144 1
112 145 1
113 115 1
113 122 1
113 126 -1
113 132 -1
113 133 1
113 137 -1
113 142 1
113 144 1
113 147 -1
113 149 1
113 150 -1
114 122 1
114 123 -1
114 125 1
114 128 -1
114 131 1
114 136 -1
114 139 1
114 146 -1
114 150 -1
115 119 1
115 122 1
115 126 -1
115 136 1
115 139 1
115 143 1
115 145 -1
115 148 1
115 149 -1
116 119 -1
116 120 1
116 129 -1
116 137 -1
116 142 1
116 143 -1
116 144 -1
116 149 -1
117 122 1
117 128 -1
117 140 -1
117 150 -1
118 120 1
118 125 -1
118 128 1
118 134 1
118 136 -1
118 138 1
118 150 -1
119 123 -1
119 132 -1
119 147 1
119 150 1
120 137 1
120 139 1
120 140 1
120 141 1
120 144 -1
120 146 1
121 129 -1
121 137 -1
121 139 1
122 124 -1
122 130 -1
122 132 1
122 144 1
122 146 -1
122 149 -1
122 150 -1
123 125 -1
123 135 -1
123 144 -1
123 145 -1
123 149 1
123 150 -1
124 125 1
124 129 -1
124 142 1
124 143 1
124 144 1
124 145 1
124 149 1
125 127 1
125 129 -1
125 144 -1
125 146 1
125 149 -1
126 136 1
126 139 1
126 140 1
126 142 1
126 143 -1
126 145 -1
126 147 -1
127 132 1
127 134 -1
127 135 1
127 141 1
127 149 -1
127 150 -1
128 136 -1
128 139 1
128 146 -1
128 150 -1
129 133 -1
129 134 1
129 135 -1
129 139 1
129 143 -1
129 147 -1
130 132 -1
130 137 -1
130 140 -1
130 146 -1
130 148 1
130 149 1
131 138 1
131 139 -1
131 140 1
131 147 1
131 148 1
131 149 1
132 149 -1
132 150 -1
133 134 1
133 139 1
133 148 -1
134 136 -1
134 137 1
134 141 1
134 149 -1
135 136 1
135 137 1
135 138 -1
135 145 1
135 146 -1
135 149 -1
135 150 1
136 145 -1
136 149 1
137 139 -1
137 141 1
137 143 1
137 149 1
137 150 1
138 140 -1
138 141 -1
138 143 -1
138 144 1
138 147 1
139 140 -1
139 142 -1
139 145 1
139 150 1
140 141 1
140 143 1
141 144 1
141 148 1
141 150 1
142 145 1
142 146 1
142 147 1
143 145 -1
143 147 -1
145 149 1
146 147 -1
146 150 -1
147 150 -1
148 150 -1
